W=6;
H=7;

MAX_TIME=18;
MAX_TRACKS=15;

TARGET=(4,6);

TRAINS=[(2,2,LEFT),(4,2,RIGHT),(6,2,LEFT)];

INIT_POS=[
(2,2,STRAIGHT_RL),
(3,5,EMPTY),
(4,2,STRAIGHT_RL),
(4,6,STRAIGHT_RL),
(5,5,EMPTY),
(6,2,STRAIGHT_RL),
];
TUNNEL_PAIRS=[];

GATES=[];
ACTIVATIONS=[];

DSWITCHES=[];

STATIONS=[];
